383
1 0 5 345 1 315 1 329 1 330 1 331 1
2 0 5 51 1 86 1 135 1 106 1 50 1
3 0 5 65 1 203 1 58 1 5 1 131 1
4 0 5 138 1 107 1 116 1 61 1 7 1
5 0 5 10 1 29 1 3 1 65 1 129 1
6 0 5 22 1 196 1 192 1 149 1 119 1
7 0 5 61 1 20 1 138 1 4 1 116 1
8 0 5 57 1 94 1 142 1 165 1 34 1
9 0 5 173 1 226 1 242 1 97 1 305 1
10 0 5 5 1 127 1 29 1 151 1 129 1
11 0 5 216 1 291 1 273 1 115 1 162 1
12 0 5 285 1 239 1 260 1 199 1 248 1
13 0 5 77 1 135 1 60 1 28 1 104 1
14 0 5 135 1 66 1 78 1 106 1 105 1
15 0 5 155 1 329 1 330 1 331 1 345 1
16 0 5 289 1 63 1 179 1 111 1 130 1
17 0 5 157 1 114 1 241 1 243 1 168 1
18 0 5 217 1 186 1 246 1 265 1 115 1
19 0 5 26 1 119 1 108 1 128 1 109 1
20 0 5 116 1 7 1 61 1 4 1 138 1
21 0 5 149 1 292 1 36 1 43 1 161 1
22 0 5 6 1 192 1 196 1 197 1 36 1
23 0 5 54 1 267 1 162 1 73 1 312 1
24 0 5 119 1 111 1 297 1 128 1 125 1
25 0 5 258 1 113 1 231 1 166 1 132 1
26 0 5 146 1 19 1 117 1 119 1 128 1
27 0 5 53 1 137 1 92 1 124 1 99 1
28 0 5 104 1 13 1 77 1 293 1 262 1
29 0 5 153 1 5 1 127 1 37 1 33 1
30 0 5 277 1 205 1 85 1 156 1 133 1
31 0 5 80 1 203 1 107 1 3 1 140 1
32 0 5 122 1 329 1 330 1 331 1 332 1
33 0 5 83 1 90 1 153 1 29 1 154 1
34 0 5 57 1 94 1 282 1 123 1 165 1
35 0 5 49 1 154 1 100 1 71 1 332 1
36 0 5 292 1 161 1 67 1 99 1 43 1
37 0 5 127 1 143 1 153 1 29 1 103 1
38 0 5 145 1 64 1 98 1 41 1 92 1
39 0 5 248 1 285 1 12 1 199 1 239 1
40 0 5 204 1 307 1 256 1 224 1 247 1
41 0 5 147 1 145 1 78 1 64 1 66 1
42 0 5 198 1 184 1 82 1 228 1 295 1
43 0 5 144 1 149 1 236 1 36 1 53 1
44 0 5 142 1 240 1 291 1 212 1 54 1
45 0 5 143 1 134 1 103 1 153 1 71 1
46 0 5 273 1 186 1 252 1 217 1 18 1
47 0 5 81 1 121 1 59 1 152 1 145 1
48 0 5 187 1 233 1 157 1 101 1 17 1
49 0 5 35 1 83 1 154 1 71 1 100 1
50 0 5 106 1 86 1 105 1 51 1 14 1
51 0 5 2 1 86 1 104 1 139 1 50 1
52 0 5 131 1 58 1 65 1 117 1 85 1
53 0 5 236 1 27 1 137 1 297 1 43 1
54 0 5 55 1 23 1 212 1 291 1 296 1
55 0 5 54 1 212 1 291 1 240 1 296 1
56 0 5 168 1 242 1 233 1 187 1 241 1
57 0 5 8 1 34 1 94 1 165 1 123 1
58 0 5 131 1 3 1 65 1 52 1 85 1
59 0 5 152 1 47 1 98 1 145 1 121 1
60 0 5 293 1 77 1 63 1 13 1 69 1
61 0 5 7 1 4 1 20 1 116 1 138 1
62 0 5 219 1 109 1 108 1 202 1 225 1
63 0 5 297 1 69 1 293 1 60 1 16 1
64 0 5 38 1 92 1 41 1 145 1 124 1
65 0 5 85 1 3 1 203 1 58 1 5 1
66 0 5 14 1 78 1 135 1 41 1 147 1
67 0 5 161 1 124 1 99 1 36 1 136 1
68 0 5 275 1 150 1 257 1 246 1 272 1
69 0 5 63 1 293 1 53 1 297 1 60 1
70 0 5 177 1 278 1 229 1 123 1 175 1
71 0 5 100 1 122 1 49 1 35 1 334 1
72 0 5 110 1 214 1 189 1 171 1 188 1
73 0 5 296 1 250 1 165 1 23 1 267 1
74 0 5 306 1 211 1 158 1 221 1 82 1
75 0 5 253 1 313 1 261 1 160 1 280 1
76 0 5 237 1 267 1 304 1 249 1 185 1
77 0 5 13 1 60 1 104 1 135 1 28 1
78 0 5 14 1 66 1 147 1 105 1 41 1
79 0 5 123 1 177 1 94 1 8 1 57 1
80 0 5 31 1 107 1 203 1 3 1 4 1
81 0 5 102 1 47 1 145 1 41 1 121 1
82 0 5 184 1 74 1 42 1 198 1 306 1
83 0 5 33 1 49 1 154 1 35 1 90 1
84 0 5 92 1 27 1 53 1 137 1 297 1
85 0 5 65 1 88 1 131 1 52 1 58 1
86 0 5 50 1 51 1 2 1 106 1 14 1
87 0 5 144 1 302 1 19 1 30 1 89 1
88 0 5 85 1 52 1 183 1 117 1 90 1
89 0 5 87 1 111 1 128 1 119 1 183 1
90 0 5 33 1 29 1 52 1 117 1 183 1
91 0 5 26 1 183 1 85 1 111 1 146 1
92 0 5 64 1 84 1 27 1 38 1 124 1
93 0 5 224 1 184 1 234 1 247 1 228 1
94 0 5 123 1 34 1 57 1 8 1 79 1
95 0 5 301 1 136 1 99 1 232 1 124 1
96 0 5 282 1 165 1 261 1 34 1 280 1
97 0 5 305 1 276 1 173 1 226 1 120 1
98 0 5 169 1 59 1 301 1 38 1 95 1
99 0 5 136 1 95 1 124 1 67 1 27 1
100 0 5 71 1 154 1 35 1 49 1 333 1
101 0 5 276 1 120 1 182 1 195 1 158 1
102 0 5 81 1 105 1 145 1 41 1 147 1
103 0 5 134 1 143 1 45 1 153 1 154 1
104 0 5 139 1 28 1 77 1 284 1 51 1
105 0 5 102 1 147 1 78 1 14 1 41 1
106 0 5 50 1 14 1 86 1 105 1 2 1
107 0 5 4 1 80 1 140 1 270 1 31 1
108 0 5 19 1 62 1 109 1 219 1 268 1
109 0 5 62 1 219 1 19 1 108 1 202 1
110 0 5 139 1 72 1 284 1 188 1 307 1
111 0 5 24 1 125 1 183 1 117 1 90 1
112 0 5 194 1 311 1 310 1 220 1 274 1
113 0 5 166 1 25 1 258 1 132 1 280 1
114 0 5 17 1 48 1 201 1 187 1 157 1
115 0 5 273 1 162 1 11 1 18 1 217 1
116 0 5 20 1 4 1 270 1 238 1 107 1
117 0 5 52 1 26 1 90 1 111 1 131 1
118 0 5 238 1 175 1 278 1 148 1 107 1
119 0 5 24 1 128 1 26 1 19 1 297 1
120 0 5 241 1 276 1 157 1 101 1 158 1
121 0 5 152 1 47 1 59 1 81 1 145 1
122 0 5 32 1 329 1 330 1 331 1 332 1
123 0 5 79 1 94 1 34 1 70 1 229 1
124 0 5 161 1 99 1 236 1 67 1 27 1
125 0 5 111 1 63 1 24 1 183 1 16 1
126 0 5 288 1 299 1 263 1 269 1 279 1
127 0 5 37 1 10 1 29 1 5 1 151 1
128 0 5 119 1 19 1 26 1 24 1 146 1
129 0 5 151 1 138 1 5 1 3 1 203 1
130 0 5 293 1 289 1 16 1 179 1 287 1
131 0 5 58 1 52 1 85 1 3 1 65 1
132 0 5 148 1 222 1 208 1 229 1 113 1
133 0 5 156 1 277 1 231 1 205 1 209 1
134 0 5 103 1 45 1 71 1 143 1 33 1
135 0 5 14 1 13 1 66 1 77 1 2 1
136 0 5 99 1 95 1 301 1 67 1 124 1
137 0 5 27 1 53 1 236 1 297 1 87 1
138 0 5 4 1 7 1 129 1 151 1 20 1
139 0 5 110 1 104 1 188 1 214 1 284 1
140 0 5 208 1 107 1 270 1 80 1 31 1
141 0 5 232 1 199 1 174 1 301 1 245 1
142 0 5 44 1 8 1 212 1 296 1 291 1
143 0 5 45 1 153 1 37 1 103 1 134 1
144 0 5 43 1 87 1 297 1 137 1 27 1
145 0 5 38 1 41 1 59 1 81 1 102 1
146 0 5 26 1 19 1 30 1 302 1 128 1
147 0 5 41 1 105 1 78 1 66 1 14 1
148 0 5 175 1 132 1 278 1 222 1 118 1
149 0 5 21 1 43 1 196 1 6 1 292 1
150 0 5 245 1 181 1 68 1 174 1 197 1
151 0 5 129 1 138 1 5 1 127 1 10 1
152 0 5 121 1 59 1 145 1 47 1 38 1
153 0 5 29 1 143 1 33 1 37 1 103 1
154 0 5 35 1 33 1 49 1 83 1 134 1
155 0 5 15 1 329 1 330 1 331 1 345 1
156 0 5 205 1 133 1 277 1 209 1 231 1
157 0 5 241 1 17 1 120 1 187 1 243 1
158 0 5 211 1 309 1 308 1 74 1 120 1
159 0 5 260 1 180 1 274 1 294 1 206 1
160 0 5 300 1 266 1 75 1 235 1 313 1
161 0 5 124 1 67 1 292 1 36 1 236 1
162 0 5 23 1 312 1 115 1 11 1 273 1
163 0 5 209 1 202 1 303 1 190 1 156 1
164 0 5 181 1 192 1 245 1 265 1 150 1
165 0 5 176 1 250 1 96 1 57 1 286 1
166 0 5 113 1 25 1 258 1 191 1 218 1
167 0 5 283 1 223 1 186 1 298 1 178 1
168 0 5 56 1 233 1 242 1 17 1 187 1
169 0 5 98 1 301 1 95 1 248 1 39 1
170 0 5 195 1 221 1 158 1 211 1 306 1
171 0 5 189 1 262 1 72 1 228 1 287 1
172 0 5 215 1 251 1 300 1 290 1 227 1
173 0 5 9 1 242 1 305 1 97 1 233 1
174 0 5 245 1 232 1 141 1 199 1 197 1
175 0 5 278 1 148 1 118 1 222 1 132 1
176 0 5 165 1 250 1 286 1 282 1 96 1
177 0 5 70 1 79 1 278 1 175 1 148 1
178 0 5 283 1 254 1 207 1 216 1 252 1
179 0 5 287 1 289 1 262 1 293 1 210 1
180 0 5 230 1 220 1 274 1 159 1 283 1
181 0 5 164 1 245 1 197 1 192 1 150 1
182 0 5 243 1 157 1 101 1 201 1 170 1
183 0 5 340 1 332 1 333 1 334 1 335 1
184 0 5 224 1 42 1 93 1 82 1 264 1
185 0 5 259 1 244 1 76 1 268 1 304 1
186 0 5 298 1 223 1 257 1 217 1 167 1
187 0 5 233 1 48 1 168 1 157 1 17 1
188 0 5 214 1 139 1 256 1 110 1 307 1
189 0 5 171 1 228 1 262 1 72 1 198 1
190 0 5 279 1 163 1 215 1 209 1 202 1
191 0 5 281 1 166 1 218 1 25 1 258 1
192 0 5 196 1 22 1 6 1 181 1 164 1
193 0 5 82 1 171 1 42 1 210 1 189 1
194 0 5 112 1 274 1 310 1 311 1 220 1
195 0 5 170 1 201 1 101 1 211 1 74 1
196 0 5 149 1 6 1 192 1 22 1 43 1
197 0 5 181 1 174 1 22 1 245 1 150 1
198 0 5 228 1 42 1 82 1 224 1 93 1
199 0 5 239 1 141 1 174 1 245 1 12 1
200 0 5 309 1 308 1 255 1 158 1 221 1
201 0 5 243 1 195 1 182 1 306 1 213 1
202 0 5 303 1 62 1 163 1 219 1 109 1
203 0 5 65 1 31 1 80 1 3 1 107 1
204 0 5 256 1 40 1 307 1 224 1 247 1
205 0 5 156 1 303 1 277 1 133 1 202 1
206 0 5 159 1 294 1 298 1 186 1 283 1
207 0 5 291 1 311 1 216 1 178 1 254 1
208 0 5 270 1 140 1 231 1 107 1 132 1
209 0 5 163 1 258 1 156 1 205 1 190 1
210 0 5 179 1 171 1 189 1 42 1 193 1
211 0 5 74 1 158 1 306 1 221 1 170 1
212 0 5 55 1 240 1 291 1 54 1 296 1
213 0 5 201 1 243 1 295 1 42 1 182 1
214 0 5 188 1 72 1 307 1 110 1 139 1
215 0 5 172 1 290 1 300 1 251 1 227 1
216 0 5 11 1 254 1 252 1 207 1 115 1
217 0 5 18 1 186 1 115 1 246 1 265 1
218 0 5 281 1 191 1 166 1 75 1 280 1
219 0 5 62 1 109 1 202 1 303 1 108 1
220 0 5 230 1 180 1 112 1 194 1 274 1
221 0 5 74 1 211 1 170 1 255 1 158 1
222 0 5 229 1 271 1 148 1 132 1 278 1
223 0 5 283 1 167 1 186 1 298 1 178 1
224 0 5 307 1 184 1 93 1 40 1 204 1
225 0 5 279 1 62 1 126 1 290 1 215 1
226 0 5 9 1 247 1 97 1 256 1 204 1
227 0 5 281 1 300 1 172 1 215 1 251 1
228 0 5 198 1 234 1 264 1 93 1 224 1
229 0 5 222 1 70 1 278 1 148 1 132 1
230 0 5 220 1 180 1 274 1 178 1 112 1
231 0 5 208 1 25 1 258 1 277 1 133 1
232 0 5 141 1 174 1 301 1 136 1 95 1
233 0 5 187 1 168 1 242 1 241 1 56 1
234 0 5 264 1 247 1 228 1 93 1 308 1
235 0 5 313 1 290 1 266 1 300 1 160 1
236 0 5 53 1 124 1 161 1 137 1 43 1
237 0 5 76 1 312 1 267 1 249 1 304 1
238 0 5 118 1 116 1 20 1 278 1 270 1
239 0 5 199 1 12 1 285 1 245 1 174 1
240 0 5 44 1 212 1 291 1 55 1 142 1
241 0 5 157 1 120 1 17 1 276 1 233 1
242 0 5 56 1 173 1 168 1 9 1 305 1
243 0 5 182 1 17 1 157 1 201 1 241 1
244 0 5 268 1 185 1 259 1 108 1 192 1
245 0 5 174 1 150 1 181 1 199 1 239 1
246 0 5 265 1 18 1 217 1 257 1 275 1
247 0 5 226 1 264 1 234 1 256 1 204 1
248 0 5 39 1 274 1 194 1 12 1 285 1
249 0 5 286 1 237 1 267 1 76 1 312 1
250 0 5 165 1 73 1 176 1 296 1 286 1
251 0 5 172 1 215 1 300 1 227 1 290 1
252 0 5 254 1 216 1 178 1 46 1 283 1
253 0 5 261 1 75 1 313 1 96 1 280 1
254 0 5 252 1 216 1 178 1 207 1 283 1
255 0 5 308 1 200 1 309 1 158 1 221 1
256 0 5 204 1 188 1 40 1 307 1 247 1
257 0 5 186 1 265 1 272 1 294 1 298 1
258 0 5 25 1 113 1 209 1 166 1 231 1
259 0 5 304 1 185 1 312 1 76 1 237 1
260 0 5 274 1 12 1 294 1 159 1 239 1
261 0 5 253 1 313 1 96 1 75 1 160 1
262 0 5 287 1 171 1 189 1 28 1 284 1
263 0 5 269 1 290 1 235 1 126 1 288 1
264 0 5 234 1 247 1 308 1 228 1 309 1
265 0 5 246 1 257 1 275 1 18 1 217 1
266 0 5 290 1 160 1 235 1 313 1 300 1
267 0 5 23 1 76 1 237 1 54 1 249 1
268 0 5 244 1 185 1 108 1 288 1 62 1
269 0 5 263 1 290 1 299 1 126 1 288 1
270 0 5 208 1 116 1 107 1 140 1 4 1
271 0 5 280 1 222 1 229 1 132 1 148 1
272 0 5 294 1 257 1 245 1 239 1 265 1
273 0 5 115 1 11 1 162 1 46 1 216 1
274 0 5 248 1 194 1 260 1 220 1 180 1
275 0 5 265 1 68 1 246 1 257 1 164 1
276 0 5 97 1 101 1 120 1 241 1 157 1
277 0 5 156 1 133 1 231 1 205 1 208 1
278 0 5 175 1 70 1 118 1 148 1 177 1
279 0 5 190 1 290 1 225 1 215 1 126 1
280 0 5 271 1 282 1 222 1 96 1 75 1
281 0 5 191 1 218 1 166 1 300 1 160 1
282 0 5 96 1 34 1 280 1 165 1 176 1
283 0 5 178 1 223 1 167 1 180 1 298 1
284 0 5 110 1 104 1 262 1 171 1 139 1
285 0 5 12 1 239 1 39 1 199 1 248 1
286 0 5 249 1 165 1 176 1 250 1 267 1
287 0 5 262 1 179 1 171 1 189 1 28 1
288 0 5 126 1 263 1 299 1 269 1 62 1
289 0 5 16 1 130 1 179 1 293 1 337 1
290 0 5 266 1 235 1 215 1 300 1 263 1
291 0 5 207 1 11 1 212 1 240 1 54 1
292 0 5 161 1 36 1 21 1 67 1 124 1
293 0 5 60 1 63 1 130 1 69 1 28 1
294 0 5 272 1 260 1 159 1 206 1 298 1
295 0 5 42 1 184 1 74 1 210 1 82 1
296 0 5 73 1 212 1 165 1 250 1 142 1
297 0 5 63 1 53 1 119 1 137 1 24 1
298 0 5 186 1 223 1 283 1 206 1 167 1
299 0 5 126 1 269 1 288 1 263 1 290 1
300 0 5 160 1 235 1 290 1 215 1 281 1
301 0 5 95 1 98 1 169 1 136 1 232 1
302 0 5 19 1 299 1 26 1 225 1 126 1
303 0 5 202 1 205 1 219 1 163 1 156 1
304 0 5 259 1 312 1 237 1 76 1 115 1
305 0 5 97 1 173 1 242 1 9 1 233 1
306 0 5 74 1 211 1 158 1 221 1 170 1
307 0 5 40 1 224 1 204 1 256 1 214 1
308 0 5 309 1 200 1 264 1 255 1 158 1
309 0 5 200 1 308 1 158 1 255 1 221 1
310 0 5 311 1 112 1 194 1 207 1 220 1
311 0 5 310 1 207 1 112 1 194 1 220 1
312 0 5 304 1 237 1 259 1 162 1 23 1
313 0 5 75 1 253 1 261 1 235 1 160 1
314 0 5 345 1 315 1 329 1 330 1 331 1
315 0 5 345 1 315 1 329 1 330 1 331 1
316 0 5 345 1 315 1 329 1 330 1 331 1
317 0 5 345 1 315 1 329 1 330 1 331 1
318 0 5 345 1 315 1 329 1 330 1 331 1
319 0 5 345 1 315 1 329 1 330 1 331 1
320 0 5 345 1 315 1 329 1 330 1 331 1
321 0 5 345 1 315 1 329 1 330 1 331 1
322 0 5 345 1 315 1 329 1 330 1 331 1
323 0 5 345 1 315 1 329 1 330 1 331 1
324 0 5 345 1 315 1 329 1 330 1 331 1
325 0 5 345 1 315 1 329 1 330 1 331 1
326 0 5 345 1 315 1 329 1 330 1 331 1
327 0 5 345 1 315 1 329 1 330 1 331 1
328 0 5 345 1 315 1 329 1 330 1 331 1
329 0 5 345 1 315 1 329 1 330 1 331 1
330 0 5 345 1 315 1 329 1 330 1 331 1
331 0 5 345 1 315 1 329 1 330 1 331 1
332 0 5 345 1 315 1 329 1 330 1 331 1
333 0 5 345 1 315 1 329 1 330 1 331 1
334 0 5 345 1 315 1 329 1 330 1 331 1
335 0 5 345 1 315 1 329 1 330 1 331 1
336 0 5 345 1 315 1 329 1 330 1 331 1
337 0 5 345 1 315 1 329 1 330 1 331 1
338 0 5 345 1 315 1 329 1 330 1 331 1
339 0 5 345 1 315 1 329 1 330 1 331 1
340 0 5 345 1 315 1 329 1 330 1 331 1
341 0 5 345 1 315 1 329 1 330 1 331 1
342 0 5 345 1 315 1 329 1 330 1 331 1
343 0 5 345 1 315 1 329 1 330 1 331 1
344 0 5 345 1 315 1 329 1 330 1 331 1
345 0 5 345 1 315 1 329 1 330 1 331 1
346 0 5 345 1 315 1 329 1 330 1 331 1
347 0 5 345 1 315 1 329 1 330 1 331 1
348 0 5 345 1 315 1 329 1 330 1 331 1
349 0 5 345 1 315 1 329 1 330 1 331 1
350 0 5 345 1 315 1 329 1 330 1 331 1
351 0 5 345 1 315 1 329 1 330 1 331 1
352 0 5 345 1 315 1 329 1 330 1 331 1
353 0 5 345 1 315 1 329 1 330 1 331 1
354 0 5 345 1 315 1 329 1 330 1 331 1
355 0 5 345 1 315 1 329 1 330 1 331 1
356 0 5 345 1 315 1 329 1 330 1 331 1
357 0 5 345 1 315 1 329 1 330 1 331 1
358 0 5 345 1 315 1 329 1 330 1 331 1
359 0 5 345 1 315 1 329 1 330 1 331 1
360 0 5 345 1 315 1 329 1 330 1 331 1
361 0 5 345 1 315 1 329 1 330 1 331 1
362 0 5 345 1 315 1 329 1 330 1 331 1
363 0 5 345 1 315 1 329 1 330 1 331 1
364 0 5 345 1 315 1 329 1 330 1 331 1
365 0 5 345 1 315 1 329 1 330 1 331 1
366 0 5 345 1 315 1 329 1 330 1 331 1
367 0 5 345 1 315 1 329 1 330 1 331 1
368 0 5 345 1 315 1 329 1 330 1 331 1
369 0 5 345 1 315 1 329 1 330 1 331 1
370 0 5 345 1 315 1 329 1 330 1 331 1
371 0 5 345 1 315 1 329 1 330 1 331 1
372 0 5 345 1 315 1 329 1 330 1 331 1
373 0 5 345 1 315 1 329 1 330 1 331 1
374 0 5 345 1 315 1 329 1 330 1 331 1
375 0 5 345 1 315 1 329 1 330 1 331 1
376 0 5 345 1 315 1 329 1 330 1 331 1
377 0 5 345 1 315 1 329 1 330 1 331 1
378 0 5 345 1 315 1 329 1 330 1 331 1
379 0 5 345 1 315 1 329 1 330 1 331 1
380 0 5 345 1 315 1 329 1 330 1 331 1
381 0 5 345 1 315 1 329 1 330 1 331 1
382 0 5 345 1 315 1 329 1 330 1 331 1
383 0 5 345 1 315 1 329 1 330 1 331 1
-1
EOF
